p edge 40 240
e 1 2
e 1 3
e 1 4
e 1 5
e 1 6
e 1 7
e 1 8
e 1 9
e 1 10
e 1 11
e 1 12
e 1 13
e 2 3
e 2 4
e 2 14
e 2 15
e 2 16
e 2 17
e 2 18
e 2 19
e 2 20
e 2 21
e 2 22
e 3 13
e 3 21
e 3 27
e 3 29
e 3 31
e 3 33
e 3 36
e 3 38
e 3 39
e 3 40
e 4 12
e 4 22
e 4 28
e 4 30
e 4 32
e 4 34
e 4 35
e 4 37
e 4 39
e 4 40
e 5 9
e 5 10
e 5 16
e 5 21
e 5 22
e 5 23
e 5 24
e 5 25
e 5 35
e 5 36
e 5 39
e 6 7
e 6 8
e 6 14
e 6 17
e 6 22
e 6 23
e 6 26
e 6 27
e 6 36
e 6 37
e 6 40
e 7 8
e 7 15
e 7 18
e 7 21
e 7 24
e 7 28
e 7 31
e 7 32
e 7 35
e 7 38
e 8 16
e 8 19
e 8 20
e 8 25
e 8 29
e 8 30
e 8 33
e 8 34
e 8 39
e 9 10
e 9 14
e 9 18
e 9 19
e 9 26
e 9 28
e 9 29
e 9 34
e 9 38
e 9 40
e 10 15
e 10 17
e 10 20
e 10 27
e 10 30
e 10 31
e 10 32
e 10 33
e 10 37
e 11 12
e 11 13
e 11 14
e 11 15
e 11 16
e 11 23
e 11 24
e 11 27
e 11 28
e 11 29
e 11 30
e 12 17
e 12 19
e 12 24
e 12 25
e 12 26
e 12 32
e 12 33
e 12 36
e 12 38
e 13 18
e 13 20
e 13 23
e 13 25
e 13 26
e 13 31
e 13 34
e 13 35
e 13 37
e 14 20
e 14 21
e 14 24
e 14 30
e 14 34
e 14 36
e 14 37
e 14 38
e 15 19
e 15 22
e 15 23
e 15 29
e 15 33
e 15 35
e 15 37
e 15 38
e 16 17
e 16 18
e 16 27
e 16 28
e 16 33
e 16 34
e 16 35
e 16 36
e 17 20
e 17 23
e 17 26
e 17 28
e 17 31
e 17 38
e 17 39
e 18 19
e 18 24
e 18 26
e 18 27
e 18 32
e 18 37
e 18 39
e 19 23
e 19 25
e 19 30
e 19 31
e 19 36
e 19 40
e 20 24
e 20 25
e 20 29
e 20 32
e 20 35
e 20 40
e 21 23
e 21 25
e 21 26
e 21 28
e 21 30
e 21 32
e 21 33
e 22 24
e 22 25
e 22 26
e 22 27
e 22 29
e 22 31
e 22 34
e 23 32
e 23 34
e 23 39
e 23 40
e 24 31
e 24 33
e 24 39
e 24 40
e 25 27
e 25 28
e 25 37
e 25 38
e 26 29
e 26 30
e 26 33
e 26 35
e 27 30
e 27 32
e 27 38
e 27 40
e 28 29
e 28 31
e 28 37
e 28 40
e 29 32
e 29 36
e 29 39
e 30 31
e 30 35
e 30 39
e 31 34
e 31 36
e 32 34
e 32 36
e 33 34
e 33 37
e 33 40
e 34 38
e 35 36
e 35 38
e 35 40
e 36 37
e 37 39
e 38 39
